3703
5594
3059
10008
7016
1302
5477
1337
4323
6337
2074
7497
3796
1953
5472
9913
3407
8173
5707
6516
8273
10038
4714
6171
2493
5452
2298
9645
585
4406
3214
5868
6930
1767
2041
4990
5755
7350
8064
9684
7828
2195
615
4470
7497
6128
915
9418
1521
2306
